c Grafo no formato DIMACS 
p edge 70 205 
e 1 55 
e 1 47 
e 1 44 
e 1 39 
e 1 23 
e 1 18 
e 2 67 
e 2 64 
e 2 28 
e 2 24 
e 2 14 
e 3 57 
e 3 42 
e 4 68 
e 4 64 
e 4 60 
e 4 42 
e 4 35 
e 4 10 
e 5 60 
e 5 57 
e 5 43 
e 5 37 
e 5 18 
e 6 49 
e 6 47 
e 6 36 
e 6 28 
e 6 15 
e 6 12 
e 6 11 
e 6 9 
e 7 50 
e 7 40 
e 7 29 
e 7 25 
e 8 69 
e 8 66 
e 8 59 
e 8 55 
e 8 38 
e 8 33 
e 8 24 
e 8 16 
e 8 14 
e 9 68 
e 9 23 
e 9 10 
e 10 63 
e 10 61 
e 10 59 
e 10 43 
e 10 31 
e 10 18 
e 11 63 
e 11 62 
e 11 46 
e 11 39 
e 11 20 
e 11 17 
e 11 16 
e 11 13 
e 12 42 
e 13 68 
e 13 36 
e 13 28 
e 14 55 
e 14 54 
e 14 16 
e 15 63 
e 15 35 
e 15 33 
e 15 17 
e 16 57 
e 16 27 
e 17 47 
e 17 45 
e 18 54 
e 18 44 
e 18 40 
e 18 38 
e 18 31 
e 18 30 
e 19 68 
e 19 65 
e 19 38 
e 19 32 
e 20 49 
e 20 44 
e 20 29 
e 21 59 
e 21 48 
e 21 33 
e 22 59 
e 22 41 
e 22 31 
e 23 47 
e 23 41 
e 23 40 
e 23 37 
e 24 63 
e 24 28 
e 25 69 
e 25 53 
e 25 41 
e 25 39 
e 25 37 
e 25 35 
e 26 59 
e 26 38 
e 26 37 
e 26 31 
e 26 29 
e 27 54 
e 27 52 
e 27 51 
e 27 50 
e 27 49 
e 27 35 
e 28 70 
e 28 67 
e 28 64 
e 28 45 
e 28 43 
e 28 40 
e 28 39 
e 28 34 
e 29 44 
e 29 36 
e 30 67 
e 30 58 
e 30 57 
e 31 69 
e 31 64 
e 31 40 
e 32 68 
e 32 47 
e 33 66 
e 33 54 
e 33 38 
e 34 61 
e 34 49 
e 34 43 
e 34 36 
e 35 56 
e 35 47 
e 35 40 
e 36 70 
e 36 69 
e 36 46 
e 36 43 
e 37 52 
e 37 51 
e 38 69 
e 39 67 
e 39 47 
e 39 46 
e 40 43 
e 40 42 
e 41 65 
e 41 62 
e 42 59 
e 42 54 
e 42 52 
e 42 50 
e 42 43 
e 43 67 
e 43 46 
e 44 62 
e 44 59 
e 44 53 
e 45 69 
e 45 67 
e 45 62 
e 45 60 
e 45 58 
e 45 57 
e 45 48 
e 46 60 
e 46 58 
e 47 58 
e 48 64 
e 49 61 
e 49 56 
e 50 55 
e 50 52 
e 50 51 
e 51 62 
e 52 69 
e 52 56 
e 53 57 
e 55 59 
e 56 68 
e 57 69 
e 57 61 
e 57 60 
e 57 58 
e 58 70 
e 58 69 
e 58 68 
e 58 60 
e 61 68 
e 62 69 
e 66 70 
e 67 70 
